NAME : SCA3-7.6591636.tour
COMMENT : Cost = 0_6591636
COMMENT : Found by LKH [Keld Helsgaun] Sat Sep  9 21:12:58 2017
TYPE : TOUR
DIMENSION : 54
TOUR_SECTION
1
48
35
20
8
42
49
13
15
5
4
39
16
14
25
46
54
41
17
6
29
52
26
12
33
7
37
10
30
2
47
32
34
22
36
40
11
24
51
19
53
21
27
18
44
50
3
43
38
31
45
23
28
9
-1
EOF
